58
150
105	3
104	1
103	2
102	2
101	2
99	1
98	4
97	1
96	1
95	2
94	2
90	1
89	1
88	2
87	2
86	1
85	2
82	3
79	1
78	1
76	3
75	2
71	3
70	2
69	1
68	1
67	2
66	2
65	2
63	1
62	3
61	1
60	1
59	2
58	1
54	2
53	1
52	2
51	1
50	2
49	1
48	2
46	2
45	1
44	1
43	2
41	1
40	1
39	3
38	1
37	2
36	1
35	1
34	3
33	1
32	2
31	2
30	3
